40	100	100	100
6	8	24
15	24	5
6	16	2
33	30	11
22	25	33
5	21	10
29	30	12
16	13	32
25	31	30
24	33	22
7	22	20
12	32	23
33	13	1
21	26	11
28	25	7
31	27	22
6	4	10
26	12	24
21	26	1
10	27	16
18	27	33
20	29	5
24	24	16
26	34	8
1	34	3
17	8	4
34	17	22
29	4	24
19	22	5
33	20	8
2	18	11
30	21	9
28	6	25
14	26	9
34	15	6
10	10	5
2	33	28
24	23	7
9	17	20
30	2	3
